#######################################
### Exact MIP solver for the HHCRSP ###
#######################################
-- Instance file: new-instances/HHCRSP_100_20_37_1.2_C_C.txt
-- Max threads: 4
-- Time limit: 999999 seconds
-- Use initial solution: No
Trivial flow violations prevented generating 44274 variables.
Model exported.
Version identifier: 20.1.0.0 | 2020-11-10 | 9bedb6d68
CPXPARAM_Threads                                 4
CPXPARAM_TimeLimit                               999999
Parallel mode: deterministic, using up to 4 threads for concurrent optimization:
 * Starting dual Simplex on 1 thread...
 * Starting Barrier on 3 threads...
Tried aggregator 1 time.
LP Presolve eliminated 4992 rows and 1214 columns.
Reduced LP has 45244 rows, 43465 columns, and 503710 nonzeros.
Presolve time = 0.44 sec. (132.39 ticks)
Symmetry aggregator did 54863 additional substitutions.
Initializing dual steep norms . . .

Iteration log . . .
Iteration:     1   Dual objective     =             2.333333

Dual crossover.
  Dual:  Fixing 209 variables.
      208 DMoves:  Infeasibility  6.56696961e-14  Objective  1.08000000e+02
        0 DMoves:  Infeasibility  4.31321687e-14  Objective  1.08000000e+02
  Dual:  Pushed 13, exchanged 196.
  Primal:  Fixing 119 variables.
      118 PMoves:  Infeasibility  8.32667268e-16  Objective  1.08000000e+02
        0 PMoves:  Infeasibility  8.32667268e-16  Objective  1.08000000e+02
  Primal:  Pushed 74, exchanged 45.

Dual simplex solved model.


Solution status from MIP model:
-- Processing time: 0.649 sec.
-- Memory used: 100.778 MB
-- Best bound: inf
-- Obj value: 108
-- Gap: inf%
-- Total distance: 324
-- Total tardiness: 0
-- Largest tardiness: 0
